<number of tasks>
50

<cycle time>
1000

<order strength>
0.595


<task times>
1 109
2 246
3 348
4 271
5 95
6 67
7 467
8 68
9 132
10 21
11 154
12 191
13 449
14 144
15 485
16 108
17 143
18 493
19 321
20 437
21 106
22 25
23 472
24 213
25 492
26 68
27 125
28 160
29 43
30 22
31 168
32 156
33 134
34 20
35 218
36 334
37 237
38 508
39 190
40 41
41 57
42 239
43 244
44 125
45 185
46 101
47 390
48 106
49 39
50 47

<precedence relations>
1,8
1,9
2,10
2,12
3,5
3,6
3,7
3,12
3,16
4,5
4,11
5,15
5,19
6,13
6,17
7,13
8,35
8,36
9,13
9,16
10,14
10,15
11,13
12,14
12,30
13,19
14,18
15,32
16,36
16,42
17,18
17,27
18,22
18,23
18,29
18,35
19,20
19,21
19,22
19,23
20,36
21,24
21,26
21,31
22,25
23,25
24,29
25,28
25,31
26,27
26,30
27,35
27,37
28,32
28,36
28,42
29,33
29,34
29,37
29,50
30,34
30,35
30,37
30,39
31,39
31,46
32,44
33,38
33,39
33,45
33,48
35,40
35,41
36,43
36,44
36,46
36,48
37,47
39,44
40,42
41,42
41,43
41,45
42,48
42,50
43,49
44,47
45,46

<end>
